c Result of efficient AIG-to-CNF conversion using package CNF
p cnf 468 1765
-2 3 298 360 365 0
-2 -3 -298 360 365 0
2 -360 0
2 3 -298 0
2 -365 0
2 -3 298 0
3 4 -80 0
3 -4 80 0
-3 -4 -80 0
-3 4 80 0
4 5 -36 0
4 -5 36 0
-4 -5 -36 0
-4 5 36 0
5 -405 -437 0
5 -437 -6 0
5 -405 -6 0
-5 405 6 0
-5 437 6 0
-5 405 437 0
6 -406 -438 0
6 -438 -7 0
6 -406 -7 0
-6 406 7 0
-6 438 7 0
-6 406 438 0
7 -407 -439 0
7 -439 -8 0
7 -407 -8 0
-7 407 8 0
-7 439 8 0
-7 407 439 0
8 -408 -440 0
8 -440 -9 0
8 -408 -9 0
-8 408 9 0
-8 440 9 0
-8 408 440 0
9 -409 -441 0
9 -441 -10 0
9 -409 -10 0
-9 409 10 0
-9 441 10 0
-9 409 441 0
10 -410 -442 0
10 -442 -11 0
10 -410 -11 0
-10 410 11 0
-10 442 11 0
-10 410 442 0
11 -411 -443 0
11 -443 -12 0
11 -411 -12 0
-11 411 12 0
-11 443 12 0
-11 411 443 0
12 -412 -444 0
12 -444 -13 0
12 -412 -13 0
-12 412 13 0
-12 444 13 0
-12 412 444 0
13 -413 -445 0
13 -445 -14 0
13 -413 -14 0
-13 413 14 0
-13 445 14 0
-13 413 445 0
14 -414 -446 0
14 -446 -15 0
14 -414 -15 0
-14 414 15 0
-14 446 15 0
-14 414 446 0
15 -415 -447 0
15 -447 -16 0
15 -415 -16 0
-15 415 16 0
-15 447 16 0
-15 415 447 0
16 -416 -448 0
16 -448 -17 0
16 -416 -17 0
-16 416 17 0
-16 448 17 0
-16 416 448 0
17 -417 -449 0
17 -449 -18 0
17 -417 -18 0
-17 417 18 0
-17 449 18 0
-17 417 449 0
18 -418 -450 0
18 -450 -19 0
18 -418 -19 0
-18 418 19 0
-18 450 19 0
-18 418 450 0
19 -419 -451 0
19 -451 -20 0
19 -419 -20 0
-19 419 20 0
-19 451 20 0
-19 419 451 0
20 -420 -452 0
20 -452 -21 0
20 -420 -21 0
-20 420 21 0
-20 452 21 0
-20 420 452 0
21 -421 -453 0
21 -453 -22 0
21 -421 -22 0
-21 421 22 0
-21 453 22 0
-21 421 453 0
22 -422 -454 0
22 -454 -23 0
22 -422 -23 0
-22 422 23 0
-22 454 23 0
-22 422 454 0
23 -423 -455 0
23 -455 -24 0
23 -423 -24 0
-23 423 24 0
-23 455 24 0
-23 423 455 0
24 -424 -456 0
24 -456 -25 0
24 -424 -25 0
-24 424 25 0
-24 456 25 0
-24 424 456 0
25 -425 -457 0
25 -457 -26 0
25 -425 -26 0
-25 425 26 0
-25 457 26 0
-25 425 457 0
26 -426 -458 0
26 -458 -27 0
26 -426 -27 0
-26 426 27 0
-26 458 27 0
-26 426 458 0
27 -427 -459 0
27 -459 -28 0
27 -427 -28 0
-27 427 28 0
-27 459 28 0
-27 427 459 0
28 -428 -460 0
28 -460 -29 0
28 -428 -29 0
-28 428 29 0
-28 460 29 0
-28 428 460 0
29 -429 -461 0
29 -461 -30 0
29 -429 -30 0
-29 429 30 0
-29 461 30 0
-29 429 461 0
30 -430 -462 0
30 -462 -31 0
30 -430 -31 0
-30 430 31 0
-30 462 31 0
-30 430 462 0
31 -431 -463 0
31 -463 -32 0
31 -431 -32 0
-31 431 32 0
-31 463 32 0
-31 431 463 0
32 -432 -464 0
32 -464 -33 0
32 -432 -33 0
-32 432 33 0
-32 464 33 0
-32 432 464 0
33 -433 -465 0
33 -465 -34 0
33 -433 -34 0
-33 433 34 0
-33 465 34 0
-33 433 465 0
34 -434 -466 0
34 -466 -35 0
34 -434 -35 0
-34 434 35 0
-34 466 35 0
-34 434 466 0
35 -435 -467 0
-35 435 0
-35 467 0
36 -404 37 0
36 404 -37 0
-36 404 37 0
-36 -404 -37 0
-37 436 38 0
37 -436 0
37 -38 0
38 463 -39 54 0
38 -463 54 -65 0
-38 -54 0
-38 -463 65 0
-38 463 39 0
39 464 -40 0
39 -464 -47 0
-39 -464 47 0
-39 464 40 0
40 465 -41 0
40 -465 -44 0
-40 -465 44 0
-40 465 41 0
41 -466 -42 0
41 466 -43 0
-41 -466 42 0
-41 466 43 0
42 -407 -467 0
42 -406 467 0
-42 406 467 0
-42 407 -467 0
-43 404 467 0
-43 405 -467 0
43 -405 -467 0
43 -404 467 0
44 466 -45 0
44 -466 -46 0
-44 -466 46 0
-44 466 45 0
45 -409 -467 0
45 -408 467 0
-45 408 467 0
-45 409 -467 0
46 -411 -467 0
46 -410 467 0
-46 410 467 0
-46 411 -467 0
47 465 -48 0
47 -465 -51 0
-47 -465 51 0
-47 465 48 0
48 466 -49 0
48 -466 -50 0
-48 -466 50 0
-48 466 49 0
49 -413 -467 0
49 -412 467 0
-49 412 467 0
-49 413 -467 0
50 -415 -467 0
50 -414 467 0
-50 414 467 0
-50 415 -467 0
51 466 -52 0
51 -466 -53 0
-51 -466 53 0
-51 466 52 0
52 -417 -467 0
52 -416 467 0
-52 416 467 0
-52 417 -467 0
53 -419 -467 0
53 -418 467 0
-53 418 467 0
-53 419 -467 0
-54 55 61 63 64 0
54 -64 0
54 -55 0
54 -63 0
54 -61 0
-55 450 452 56 58 0
55 -450 0
55 -58 0
55 -56 0
55 -452 0
-56 442 448 449 57 0
56 -57 0
56 -449 0
56 -442 0
56 -448 0
-57 446 447 453 0
57 -446 0
57 -453 0
57 -447 0
-58 443 444 445 59 0
58 -59 0
58 -445 0
58 -443 0
58 -444 0
-59 456 459 462 60 0
59 -60 0
59 -462 0
59 -456 0
59 -459 0
-60 457 458 0
60 -457 0
60 -458 0
-61 454 460 461 62 0
61 -62 0
61 -461 0
61 -454 0
61 -460 0
-62 441 451 0
62 -441 0
62 -451 0
-63 437 455 0
63 -437 0
63 -455 0
-64 438 439 440 0
64 -438 0
64 -440 0
64 -439 0
65 464 -66 0
65 -464 -73 0
-65 -464 73 0
-65 464 66 0
66 465 -67 0
66 -465 -70 0
-66 -465 70 0
-66 465 67 0
67 466 -68 0
67 -466 -69 0
-67 -466 69 0
-67 466 68 0
68 -421 -467 0
68 -420 467 0
-68 420 467 0
-68 421 -467 0
69 -423 -467 0
69 -422 467 0
-69 422 467 0
-69 423 -467 0
70 466 -71 0
70 -466 -72 0
-70 -466 72 0
-70 466 71 0
71 -425 -467 0
71 -424 467 0
-71 424 467 0
-71 425 -467 0
72 -427 -467 0
72 -426 467 0
-72 426 467 0
-72 427 -467 0
73 465 -74 0
73 -465 -77 0
-73 -465 77 0
-73 465 74 0
74 466 -75 0
74 -466 -76 0
-74 -466 76 0
-74 466 75 0
75 -429 -467 0
75 -428 467 0
-75 428 467 0
-75 429 -467 0
76 -431 -467 0
76 -430 467 0
-76 430 467 0
-76 431 -467 0
77 466 -78 0
77 -466 -79 0
-77 -466 79 0
-77 466 78 0
78 -433 -467 0
78 -432 467 0
-78 432 467 0
-78 433 -467 0
-79 434 467 0
-79 435 -467 0
79 -435 -467 0
79 -434 467 0
80 -81 -114 0
80 -81 -112 0
80 -112 -114 0
-80 112 114 0
-80 81 114 0
-80 81 112 0
81 -463 82 -98 0
81 463 82 -83 0
-81 -82 0
-81 -463 98 0
-81 463 83 0
-82 436 54 0
82 -436 0
82 -54 0
-83 464 84 0
-83 -464 91 0
83 -464 -91 0
83 464 -84 0
-84 465 85 0
-84 -465 88 0
84 -465 -88 0
84 465 -85 0
-85 466 87 0
-85 -466 86 0
85 -466 -86 0
85 466 -87 0
86 -408 -467 0
86 -407 467 0
-86 407 467 0
-86 408 -467 0
87 -406 -467 0
87 -405 467 0
-87 405 467 0
-87 406 -467 0
88 466 -89 0
88 -466 -90 0
-88 -466 90 0
-88 466 89 0
89 -410 -467 0
89 -409 467 0
-89 409 467 0
-89 410 -467 0
90 -412 -467 0
90 -411 467 0
-90 411 467 0
-90 412 -467 0
91 465 -92 0
91 -465 -95 0
-91 -465 95 0
-91 465 92 0
92 466 -93 0
92 -466 -94 0
-92 -466 94 0
-92 466 93 0
93 -414 -467 0
93 -413 467 0
-93 413 467 0
-93 414 -467 0
94 -416 -467 0
94 -415 467 0
-94 415 467 0
-94 416 -467 0
95 466 -96 0
95 -466 -97 0
-95 -466 97 0
-95 466 96 0
96 -418 -467 0
96 -417 467 0
-96 417 467 0
-96 418 -467 0
97 -420 -467 0
97 -419 467 0
-97 419 467 0
-97 420 -467 0
98 464 -99 0
98 -464 -106 0
-98 -464 106 0
-98 464 99 0
99 465 -100 0
99 -465 -103 0
-99 -465 103 0
-99 465 100 0
100 466 -101 0
100 -466 -102 0
-100 -466 102 0
-100 466 101 0
101 -422 -467 0
101 -421 467 0
-101 421 467 0
-101 422 -467 0
102 -424 -467 0
102 -423 467 0
-102 423 467 0
-102 424 -467 0
103 466 -104 0
103 -466 -105 0
-103 -466 105 0
-103 466 104 0
104 -426 -467 0
104 -425 467 0
-104 425 467 0
-104 426 -467 0
105 -428 -467 0
105 -427 467 0
-105 427 467 0
-105 428 -467 0
106 465 -107 0
106 -465 -110 0
-106 -465 110 0
-106 465 107 0
107 466 -108 0
107 -466 -109 0
-107 -466 109 0
-107 466 108 0
108 -430 -467 0
108 -429 467 0
-108 429 467 0
-108 430 -467 0
109 -432 -467 0
109 -431 467 0
-109 431 467 0
-109 432 -467 0
110 466 -111 0
110 -435 -466 467 0
-110 466 111 0
-110 -466 -467 0
-110 435 -466 0
111 -434 -467 0
111 -433 467 0
-111 433 467 0
-111 434 -467 0
-112 -6 -113 0
-112 6 113 0
112 6 -113 0
112 -6 113 0
113 405 -437 0
113 -405 437 0
-113 -405 -437 0
-113 405 437 0
114 -115 -132 0
114 -115 -130 0
114 -130 -132 0
-114 130 132 0
-114 115 132 0
-114 115 130 0
115 -463 82 -123 0
115 463 82 -116 0
-115 -82 0
-115 -463 123 0
-115 463 116 0
-116 464 117 0
-116 -464 120 0
116 -464 -120 0
116 464 -117 0
-117 465 118 0
-117 -465 119 0
117 -465 -119 0
117 465 -118 0
-118 -466 45 0
-118 466 42 0
118 466 -42 0
118 -466 -45 0
119 466 -46 0
119 -466 -49 0
-119 -466 49 0
-119 466 46 0
120 465 -121 0
120 -465 -122 0
-120 -465 122 0
-120 465 121 0
121 466 -50 0
121 -466 -52 0
-121 -466 52 0
-121 466 50 0
122 466 -53 0
122 -466 -68 0
-122 -466 68 0
-122 466 53 0
123 464 -124 0
123 -464 -127 0
-123 -464 127 0
-123 464 124 0
124 465 -125 0
124 -465 -126 0
-124 -465 126 0
-124 465 125 0
125 466 -69 0
125 -466 -71 0
-125 -466 71 0
-125 466 69 0
126 466 -72 0
126 -466 -75 0
-126 -466 75 0
-126 466 72 0
127 465 -128 0
127 -465 -129 0
-127 -465 129 0
-127 465 128 0
128 466 -76 0
128 -466 -78 0
-128 -466 78 0
-128 466 76 0
129 -434 466 467 0
129 -435 466 -467 0
-129 -466 0
-129 435 -467 0
-129 434 467 0
-130 -7 -131 0
-130 7 131 0
130 7 -131 0
130 -7 131 0
131 406 -438 0
131 -406 438 0
-131 -406 -438 0
-131 406 438 0
132 -133 -150 0
132 -133 -148 0
132 -148 -150 0
-132 148 150 0
-132 133 150 0
-132 133 148 0
133 -463 82 -141 0
133 463 82 -134 0
-133 -82 0
-133 -463 141 0
-133 463 134 0
-134 464 135 0
-134 -464 138 0
134 -464 -138 0
134 464 -135 0
-135 465 136 0
-135 -465 137 0
135 -465 -137 0
135 465 -136 0
-136 -466 89 0
-136 466 86 0
136 466 -86 0
136 -466 -89 0
137 466 -90 0
137 -466 -93 0
-137 -466 93 0
-137 466 90 0
138 465 -139 0
138 -465 -140 0
-138 -465 140 0
-138 465 139 0
139 466 -94 0
139 -466 -96 0
-139 -466 96 0
-139 466 94 0
140 466 -97 0
140 -466 -101 0
-140 -466 101 0
-140 466 97 0
141 464 -142 0
141 -464 -145 0
-141 -464 145 0
-141 464 142 0
142 465 -143 0
142 -465 -144 0
-142 -465 144 0
-142 465 143 0
143 466 -102 0
143 -466 -104 0
-143 -466 104 0
-143 466 102 0
144 466 -105 0
144 -466 -108 0
-144 -466 108 0
-144 466 105 0
145 465 -146 0
145 -465 -147 0
-145 -465 147 0
-145 465 146 0
146 466 -109 0
146 -466 -111 0
-146 -466 111 0
-146 466 109 0
147 -435 466 467 0
-147 435 0
-147 -467 0
-147 -466 0
-148 -8 -149 0
-148 8 149 0
148 8 -149 0
148 -8 149 0
149 407 -439 0
149 -407 439 0
-149 -407 -439 0
-149 407 439 0
150 -151 -160 0
150 -151 -158 0
150 -158 -160 0
-150 158 160 0
-150 151 160 0
-150 151 158 0
151 -463 82 -155 0
151 463 82 -152 0
-151 -82 0
-151 -463 155 0
-151 463 152 0
-152 464 153 0
-152 -464 154 0
152 -464 -154 0
152 464 -153 0
-153 -465 48 0
-153 465 44 0
153 465 -44 0
153 -465 -48 0
154 465 -51 0
154 -465 -67 0
-154 -465 67 0
-154 465 51 0
155 464 -156 0
155 -464 -157 0
-155 -464 157 0
-155 464 156 0
156 465 -70 0
156 -465 -74 0
-156 -465 74 0
-156 465 70 0
157 465 -77 0
-157 -465 0
-157 77 0
-158 -9 -159 0
-158 9 159 0
158 9 -159 0
158 -9 159 0
159 408 -440 0
159 -408 440 0
-159 -408 -440 0
-159 408 440 0
160 -161 -170 0
160 -161 -168 0
160 -168 -170 0
-160 168 170 0
-160 161 170 0
-160 161 168 0
161 -463 82 -165 0
161 463 82 -162 0
-161 -82 0
-161 -463 165 0
-161 463 162 0
-162 464 163 0
-162 -464 164 0
162 -464 -164 0
162 464 -163 0
-163 -465 92 0
-163 465 88 0
163 465 -88 0
163 -465 -92 0
164 465 -95 0
164 -465 -100 0
-164 -465 100 0
-164 465 95 0
165 464 -166 0
165 -464 -167 0
-165 -464 167 0
-165 464 166 0
166 465 -103 0
166 -465 -107 0
-166 -465 107 0
-166 465 103 0
167 465 -110 0
-167 -465 0
-167 110 0
-168 -10 -169 0
-168 10 169 0
168 10 -169 0
168 -10 169 0
169 409 -441 0
169 -409 441 0
-169 -409 -441 0
-169 409 441 0
170 -171 -180 0
170 -171 -178 0
170 -178 -180 0
-170 178 180 0
-170 171 180 0
-170 171 178 0
171 -463 82 -175 0
171 463 82 -172 0
-171 -82 0
-171 -463 175 0
-171 463 172 0
-172 464 173 0
-172 -464 174 0
172 -464 -174 0
172 464 -173 0
-173 -465 121 0
-173 465 119 0
173 465 -119 0
173 -465 -121 0
174 465 -122 0
174 -465 -125 0
-174 -465 125 0
-174 465 122 0
175 464 -176 0
175 -464 -177 0
-175 -464 177 0
-175 464 176 0
176 465 -126 0
176 -465 -128 0
-176 -465 128 0
-176 465 126 0
177 465 -129 0
-177 -465 0
-177 129 0
-178 -11 -179 0
-178 11 179 0
178 11 -179 0
178 -11 179 0
179 410 -442 0
179 -410 442 0
-179 -410 -442 0
-179 410 442 0
180 -181 -190 0
180 -181 -188 0
180 -188 -190 0
-180 188 190 0
-180 181 190 0
-180 181 188 0
181 -463 82 -185 0
181 463 82 -182 0
-181 -82 0
-181 -463 185 0
-181 463 182 0
-182 464 183 0
-182 -464 184 0
182 -464 -184 0
182 464 -183 0
-183 -465 139 0
-183 465 137 0
183 465 -137 0
183 -465 -139 0
184 465 -140 0
184 -465 -143 0
-184 -465 143 0
-184 465 140 0
185 464 -186 0
185 -464 -187 0
-185 -464 187 0
-185 464 186 0
186 465 -144 0
186 -465 -146 0
-186 -465 146 0
-186 465 144 0
187 -435 465 466 467 0
-187 -467 0
-187 -466 0
-187 435 0
-187 -465 0
-188 -12 -189 0
-188 12 189 0
188 12 -189 0
188 -12 189 0
189 411 -443 0
189 -411 443 0
-189 -411 -443 0
-189 411 443 0
190 -191 -196 0
190 -191 -194 0
190 -194 -196 0
-190 194 196 0
-190 191 196 0
-190 191 194 0
191 -463 82 -193 0
191 463 82 -192 0
-191 -82 0
-191 -463 193 0
-191 463 192 0
192 464 -47 0
192 -464 -66 0
-192 -464 66 0
-192 464 47 0
193 464 -73 0
-193 -464 0
-193 73 0
-194 -13 -195 0
-194 13 195 0
194 13 -195 0
194 -13 195 0
195 412 -444 0
195 -412 444 0
-195 -412 -444 0
-195 412 444 0
196 -197 -202 0
196 -197 -200 0
196 -200 -202 0
-196 200 202 0
-196 197 202 0
-196 197 200 0
197 -463 82 -199 0
197 463 82 -198 0
-197 -82 0
-197 -463 199 0
-197 463 198 0
198 464 -91 0
198 -464 -99 0
-198 -464 99 0
-198 464 91 0
199 464 -106 0
-199 -464 0
-199 106 0
-200 -14 -201 0
-200 14 201 0
200 14 -201 0
200 -14 201 0
201 413 -445 0
201 -413 445 0
-201 -413 -445 0
-201 413 445 0
202 -203 -208 0
202 -203 -206 0
202 -206 -208 0
-202 206 208 0
-202 203 208 0
-202 203 206 0
203 -463 82 -205 0
203 463 82 -204 0
-203 -82 0
-203 -463 205 0
-203 463 204 0
204 464 -120 0
204 -464 -124 0
-204 -464 124 0
-204 464 120 0
205 464 -127 0
-205 -464 0
-205 127 0
-206 -15 -207 0
-206 15 207 0
206 15 -207 0
206 -15 207 0
207 414 -446 0
207 -414 446 0
-207 -414 -446 0
-207 414 446 0
208 -209 -214 0
208 -209 -212 0
208 -212 -214 0
-208 212 214 0
-208 209 214 0
-208 209 212 0
209 -463 82 -211 0
209 463 82 -210 0
-209 -82 0
-209 -463 211 0
-209 463 210 0
210 464 -138 0
210 -464 -142 0
-210 -464 142 0
-210 464 138 0
211 464 -145 0
-211 -464 0
-211 145 0
-212 -16 -213 0
-212 16 213 0
212 16 -213 0
212 -16 213 0
213 415 -447 0
213 -415 447 0
-213 -415 -447 0
-213 415 447 0
214 -215 -220 0
214 -215 -218 0
214 -218 -220 0
-214 218 220 0
-214 215 220 0
-214 215 218 0
215 -463 82 -217 0
215 463 82 -216 0
-215 -82 0
-215 -463 217 0
-215 463 216 0
216 464 -154 0
216 -464 -156 0
-216 -464 156 0
-216 464 154 0
217 464 -157 0
-217 -464 0
-217 157 0
-218 -17 -219 0
-218 17 219 0
218 17 -219 0
218 -17 219 0
219 416 -448 0
219 -416 448 0
-219 -416 -448 0
-219 416 448 0
220 -221 -226 0
220 -221 -224 0
220 -224 -226 0
-220 224 226 0
-220 221 226 0
-220 221 224 0
221 -463 82 -223 0
221 463 82 -222 0
-221 -82 0
-221 -463 223 0
-221 463 222 0
222 464 -164 0
222 -464 -166 0
-222 -464 166 0
-222 464 164 0
223 464 -167 0
-223 -464 0
-223 167 0
-224 -18 -225 0
-224 18 225 0
224 18 -225 0
224 -18 225 0
225 417 -449 0
225 -417 449 0
-225 -417 -449 0
-225 417 449 0
226 -227 -232 0
226 -227 -230 0
226 -230 -232 0
-226 230 232 0
-226 227 232 0
-226 227 230 0
227 -463 82 -229 0
227 463 82 -228 0
-227 -82 0
-227 -463 229 0
-227 463 228 0
228 464 -174 0
228 -464 -176 0
-228 -464 176 0
-228 464 174 0
229 464 -177 0
-229 -464 0
-229 177 0
-230 -19 -231 0
-230 19 231 0
230 19 -231 0
230 -19 231 0
231 418 -450 0
231 -418 450 0
-231 -418 -450 0
-231 418 450 0
232 -233 -238 0
232 -233 -236 0
232 -236 -238 0
-232 236 238 0
-232 233 238 0
-232 233 236 0
233 -463 82 -235 0
233 463 82 -234 0
-233 -82 0
-233 -463 235 0
-233 463 234 0
234 464 -184 0
234 -464 -186 0
-234 -464 186 0
-234 464 184 0
235 464 -187 0
-235 -464 0
-235 187 0
-236 -20 -237 0
-236 20 237 0
236 20 -237 0
236 -20 237 0
237 419 -451 0
237 -419 451 0
-237 -419 -451 0
-237 419 451 0
238 -239 -243 0
238 -239 -241 0
238 -241 -243 0
-238 241 243 0
-238 239 243 0
-238 239 241 0
239 -65 240 0
-239 65 0
-239 -240 0
-240 463 82 0
240 -463 0
240 -82 0
-241 -21 -242 0
-241 21 242 0
241 21 -242 0
241 -21 242 0
242 420 -452 0
242 -420 452 0
-242 -420 -452 0
-242 420 452 0
243 -244 -247 0
243 -244 -245 0
243 -245 -247 0
-243 245 247 0
-243 244 247 0
-243 244 245 0
244 -98 240 0
-244 98 0
-244 -240 0
-245 -22 -246 0
-245 22 246 0
245 22 -246 0
245 -22 246 0
246 421 -453 0
246 -421 453 0
-246 -421 -453 0
-246 421 453 0
247 -248 -251 0
247 -248 -249 0
247 -249 -251 0
-247 249 251 0
-247 248 251 0
-247 248 249 0
248 -123 240 0
-248 123 0
-248 -240 0
-249 -23 -250 0
-249 23 250 0
249 23 -250 0
249 -23 250 0
250 422 -454 0
250 -422 454 0
-250 -422 -454 0
-250 422 454 0
251 -252 -255 0
251 -252 -253 0
251 -253 -255 0
-251 253 255 0
-251 252 255 0
-251 252 253 0
252 -141 240 0
-252 141 0
-252 -240 0
-253 -24 -254 0
-253 24 254 0
253 24 -254 0
253 -24 254 0
254 423 -455 0
254 -423 455 0
-254 -423 -455 0
-254 423 455 0
255 -256 -259 0
255 -256 -257 0
255 -257 -259 0
-255 257 259 0
-255 256 259 0
-255 256 257 0
256 -155 240 0
-256 155 0
-256 -240 0
-257 -25 -258 0
-257 25 258 0
257 25 -258 0
257 -25 258 0
258 424 -456 0
258 -424 456 0
-258 -424 -456 0
-258 424 456 0
259 -260 -263 0
259 -260 -261 0
259 -261 -263 0
-259 261 263 0
-259 260 263 0
-259 260 261 0
260 -165 240 0
-260 165 0
-260 -240 0
-261 -26 -262 0
-261 26 262 0
261 26 -262 0
261 -26 262 0
262 425 -457 0
262 -425 457 0
-262 -425 -457 0
-262 425 457 0
263 -264 -267 0
263 -264 -265 0
263 -265 -267 0
-263 265 267 0
-263 264 267 0
-263 264 265 0
264 -175 240 0
-264 175 0
-264 -240 0
-265 -27 -266 0
-265 27 266 0
265 27 -266 0
265 -27 266 0
266 426 -458 0
266 -426 458 0
-266 -426 -458 0
-266 426 458 0
267 -268 -271 0
267 -268 -269 0
267 -269 -271 0
-267 269 271 0
-267 268 271 0
-267 268 269 0
268 -185 240 0
-268 185 0
-268 -240 0
-269 -28 -270 0
-269 28 270 0
269 28 -270 0
269 -28 270 0
270 427 -459 0
270 -427 459 0
-270 -427 -459 0
-270 427 459 0
271 -272 -275 0
271 -272 -273 0
271 -273 -275 0
-271 273 275 0
-271 272 275 0
-271 272 273 0
272 -193 240 0
-272 193 0
-272 -240 0
-273 -29 -274 0
-273 29 274 0
273 29 -274 0
273 -29 274 0
274 428 -460 0
274 -428 460 0
-274 -428 -460 0
-274 428 460 0
275 -276 -279 0
275 -276 -277 0
275 -277 -279 0
-275 277 279 0
-275 276 279 0
-275 276 277 0
276 -199 240 0
-276 199 0
-276 -240 0
-277 -30 -278 0
-277 30 278 0
277 30 -278 0
277 -30 278 0
278 429 -461 0
278 -429 461 0
-278 -429 -461 0
-278 429 461 0
279 -280 -281 0
279 -281 -283 0
279 -280 -283 0
-279 280 283 0
-279 281 283 0
-279 280 281 0
280 -205 240 0
-280 205 0
-280 -240 0
281 31 -282 0
281 -31 282 0
-281 -31 -282 0
-281 31 282 0
282 430 -462 0
282 -430 462 0
-282 -430 -462 0
-282 430 462 0
283 -284 -285 0
283 -285 -287 0
283 -284 -287 0
-283 284 287 0
-283 285 287 0
-283 284 285 0
284 -211 240 0
-284 211 0
-284 -240 0
285 32 -286 0
285 -32 286 0
-285 -32 -286 0
-285 32 286 0
286 431 -463 0
286 -431 463 0
-286 -431 -463 0
-286 431 463 0
287 -288 -289 0
287 -289 -291 0
287 -288 -291 0
-287 288 291 0
-287 289 291 0
-287 288 289 0
288 -217 240 0
-288 217 0
-288 -240 0
289 33 -290 0
289 -33 290 0
-289 -33 -290 0
-289 33 290 0
290 432 -464 0
290 -432 464 0
-290 -432 -464 0
-290 432 464 0
291 -292 -293 0
291 -292 -295 -296 0
291 -293 -295 -296 0
-291 293 296 0
-291 292 295 0
-291 293 295 0
-291 292 293 0
-291 292 296 0
292 -223 240 0
-292 223 0
-292 -240 0
293 34 -294 0
293 -34 294 0
-293 -34 -294 0
-293 34 294 0
294 433 -465 0
294 -433 465 0
-294 -433 -465 0
-294 433 465 0
295 -229 240 0
-295 229 0
-295 -240 0
296 35 -297 0
296 -35 297 0
-296 -35 -297 0
-296 35 297 0
297 434 -466 0
297 -434 466 0
-297 -434 -466 0
-297 434 466 0
298 36 -299 0
298 -36 299 0
-298 -36 -299 0
-298 36 299 0
299 -405 -301 0
299 -405 -300 0
299 -300 -301 0
-299 300 301 0
-299 405 301 0
-299 405 300 0
-300 437 81 0
300 -437 0
300 -81 0
301 -406 -303 0
301 -406 -302 0
301 -302 -303 0
-301 302 303 0
-301 406 303 0
-301 406 302 0
-302 438 115 0
302 -438 0
302 -115 0
303 -407 -305 0
303 -407 -304 0
303 -304 -305 0
-303 304 305 0
-303 407 305 0
-303 407 304 0
-304 439 133 0
304 -439 0
304 -133 0
305 -408 -307 0
305 -408 -306 0
305 -306 -307 0
-305 306 307 0
-305 408 307 0
-305 408 306 0
-306 440 151 0
306 -440 0
306 -151 0
307 -409 -309 0
307 -409 -308 0
307 -308 -309 0
-307 308 309 0
-307 409 309 0
-307 409 308 0
-308 441 161 0
308 -441 0
308 -161 0
309 -410 -311 0
309 -410 -310 0
309 -310 -311 0
-309 310 311 0
-309 410 311 0
-309 410 310 0
-310 442 171 0
310 -442 0
310 -171 0
311 -411 -313 0
311 -411 -312 0
311 -312 -313 0
-311 312 313 0
-311 411 313 0
-311 411 312 0
-312 443 181 0
312 -443 0
312 -181 0
313 -412 -315 0
313 -412 -314 0
313 -314 -315 0
-313 314 315 0
-313 412 315 0
-313 412 314 0
-314 444 191 0
314 -444 0
314 -191 0
315 -413 -317 0
315 -413 -316 0
315 -316 -317 0
-315 316 317 0
-315 413 317 0
-315 413 316 0
-316 445 197 0
316 -445 0
316 -197 0
317 -414 -319 0
317 -414 -318 0
317 -318 -319 0
-317 318 319 0
-317 414 319 0
-317 414 318 0
-318 446 203 0
318 -446 0
318 -203 0
319 -415 -321 0
319 -415 -320 0
319 -320 -321 0
-319 320 321 0
-319 415 321 0
-319 415 320 0
-320 447 209 0
320 -447 0
320 -209 0
321 -416 -323 0
321 -416 -322 0
321 -322 -323 0
-321 322 323 0
-321 416 323 0
-321 416 322 0
-322 448 215 0
322 -448 0
322 -215 0
323 -417 -325 0
323 -417 -324 0
323 -324 -325 0
-323 324 325 0
-323 417 325 0
-323 417 324 0
-324 449 221 0
324 -449 0
324 -221 0
325 -418 -327 0
325 -418 -326 0
325 -326 -327 0
-325 326 327 0
-325 418 327 0
-325 418 326 0
-326 450 227 0
326 -450 0
326 -227 0
327 -419 -329 0
327 -419 -328 0
327 -328 -329 0
-327 328 329 0
-327 419 329 0
-327 419 328 0
-328 451 233 0
328 -451 0
328 -233 0
329 -420 -331 0
329 -420 -330 0
329 -330 -331 0
-329 330 331 0
-329 420 331 0
-329 420 330 0
-330 452 239 0
330 -452 0
330 -239 0
331 -421 -333 0
331 -421 -332 0
331 -332 -333 0
-331 332 333 0
-331 421 333 0
-331 421 332 0
-332 453 244 0
332 -453 0
332 -244 0
333 -422 -335 0
333 -422 -334 0
333 -334 -335 0
-333 334 335 0
-333 422 335 0
-333 422 334 0
-334 454 248 0
334 -454 0
334 -248 0
335 -423 -337 0
335 -423 -336 0
335 -336 -337 0
-335 336 337 0
-335 423 337 0
-335 423 336 0
-336 455 252 0
336 -455 0
336 -252 0
337 -424 -339 0
337 -424 -338 0
337 -338 -339 0
-337 338 339 0
-337 424 339 0
-337 424 338 0
-338 456 256 0
338 -456 0
338 -256 0
339 -425 -341 0
339 -425 -340 0
339 -340 -341 0
-339 340 341 0
-339 425 341 0
-339 425 340 0
-340 457 260 0
340 -457 0
340 -260 0
341 -426 -343 0
341 -426 -342 0
341 -342 -343 0
-341 342 343 0
-341 426 343 0
-341 426 342 0
-342 458 264 0
342 -458 0
342 -264 0
343 -427 -345 0
343 -427 -344 0
343 -344 -345 0
-343 344 345 0
-343 427 345 0
-343 427 344 0
-344 459 268 0
344 -459 0
344 -268 0
345 -428 -347 0
345 -428 -346 0
345 -346 -347 0
-345 346 347 0
-345 428 347 0
-345 428 346 0
-346 460 272 0
346 -460 0
346 -272 0
347 -429 -349 0
347 -429 -348 0
347 -348 -349 0
-347 348 349 0
-347 429 349 0
-347 429 348 0
-348 461 276 0
348 -461 0
348 -276 0
349 -430 -351 0
349 -430 -350 0
349 -350 -351 0
-349 350 351 0
-349 430 351 0
-349 430 350 0
-350 462 280 0
350 -462 0
350 -280 0
351 -431 -353 0
351 -431 -352 0
351 -352 -353 0
-351 352 353 0
-351 431 353 0
-351 431 352 0
-352 463 284 0
352 -463 0
352 -284 0
353 -432 -355 0
353 -432 -354 0
353 -354 -355 0
-353 354 355 0
-353 432 355 0
-353 432 354 0
-354 464 288 0
354 -464 0
354 -288 0
355 -433 -357 0
355 -433 -356 0
355 -356 -357 0
-355 356 357 0
-355 433 357 0
-355 433 356 0
-356 465 292 0
356 -465 0
356 -292 0
357 -434 -359 0
357 -434 -358 0
357 -358 -359 0
-357 358 359 0
-357 434 359 0
-357 434 358 0
-358 466 295 0
358 -466 0
358 -295 0
359 -435 -467 0
359 -435 -235 240 0
-359 435 0
-359 467 -240 0
-359 467 235 0
360 361 -363 0
360 -361 363 0
-360 -361 -363 0
-360 361 363 0
361 114 -362 0
361 -114 362 0
-361 -114 -362 0
-361 114 362 0
362 -81 112 0
362 81 -112 0
-362 81 112 0
-362 -81 -112 0
363 301 -364 0
363 -301 364 0
-363 -301 -364 0
-363 301 364 0
364 -405 300 0
364 405 -300 0
-364 405 300 0
-364 -405 -300 0
-365 366 371 373 375 0
-365 366 -371 -373 375 0
365 -375 0
365 -371 373 0
365 -366 0
365 371 -373 0
366 367 -369 0
366 -367 369 0
-366 -367 -369 0
-366 367 369 0
367 132 -368 0
367 -132 368 0
-367 -132 -368 0
-367 132 368 0
368 -115 130 0
368 115 -130 0
-368 115 130 0
-368 -115 -130 0
369 303 -370 0
369 -303 370 0
-369 -303 -370 0
-369 303 370 0
370 -406 302 0
370 406 -302 0
-370 406 302 0
-370 -406 -302 0
371 150 -372 0
371 -150 372 0
-371 -150 -372 0
-371 150 372 0
372 -133 148 0
372 133 -148 0
-372 133 148 0
-372 -133 -148 0
373 305 -374 0
373 -305 374 0
-373 -305 -374 0
-373 305 374 0
374 -407 304 0
374 407 -304 0
-374 407 304 0
-374 -407 -304 0
-375 376 378 380 385 0
-375 -376 -378 380 385 0
375 -380 0
375 376 -378 0
375 -385 0
375 -376 378 0
376 160 -377 0
376 -160 377 0
-376 -160 -377 0
-376 160 377 0
377 -151 158 0
377 151 -158 0
-377 151 158 0
-377 -151 -158 0
378 307 -379 0
378 -307 379 0
-378 -307 -379 0
-378 307 379 0
379 -408 306 0
379 408 -306 0
-379 408 306 0
-379 -408 -306 0
380 381 -383 0
380 -381 383 0
-380 -381 -383 0
-380 381 383 0
381 170 -382 0
381 -170 382 0
-381 -170 -382 0
-381 170 382 0
382 -161 168 0
382 161 -168 0
-382 161 168 0
-382 -161 -168 0
383 309 -384 0
383 -309 384 0
-383 -309 -384 0
-383 309 384 0
384 -409 308 0
384 409 -308 0
-384 409 308 0
-384 -409 -308 0
-385 386 388 390 395 0
-385 -386 -388 390 395 0
385 -390 0
385 386 -388 0
385 -395 0
385 -386 388 0
386 180 -387 0
386 -180 387 0
-386 -180 -387 0
-386 180 387 0
387 -171 178 0
387 171 -178 0
-387 171 178 0
-387 -171 -178 0
388 311 -389 0
388 -311 389 0
-388 -311 -389 0
-388 311 389 0
389 -410 310 0
389 410 -310 0
-389 410 310 0
-389 -410 -310 0
390 391 -393 0
390 -391 393 0
-390 -391 -393 0
-390 391 393 0
391 190 -392 0
391 -190 392 0
-391 -190 -392 0
-391 190 392 0
392 -181 188 0
392 181 -188 0
-392 181 188 0
-392 -181 -188 0
393 313 -394 0
393 -313 394 0
-393 -313 -394 0
-393 313 394 0
394 -411 312 0
394 411 -312 0
-394 411 312 0
-394 -411 -312 0
-395 396 398 -400 -402 0
-395 -396 -398 -400 -402 0
-395 396 398 400 402 0
-395 -396 -398 400 402 0
395 396 -398 0
395 -396 398 0
395 400 -402 0
395 -400 402 0
396 196 -397 0
396 -196 397 0
-396 -196 -397 0
-396 196 397 0
397 -191 194 0
397 191 -194 0
-397 191 194 0
-397 -191 -194 0
398 315 -399 0
398 -315 399 0
-398 -315 -399 0
-398 315 399 0
399 -412 314 0
399 412 -314 0
-399 412 314 0
-399 -412 -314 0
400 202 -401 0
400 -202 401 0
-400 -202 -401 0
-400 202 401 0
401 -197 200 0
401 197 -200 0
-401 197 200 0
-401 -197 -200 0
402 317 -403 0
402 -317 403 0
-402 -317 -403 0
-402 317 403 0
403 -413 316 0
403 413 -316 0
-403 413 316 0
-403 -413 -316 0
-468 0
2 0

